c read Graph
c width = 13
c time = 369 ms
c width = 4
c time = 468 ms
c width = 4
c time = 4208 ms
s td 20 5 24
b 1 1 2 7
b 2 2 3 7 8
b 3 4 5 11 12
b 4 3 7 8 13
b 5 4 11 12 18
b 6 13 14 20 21
b 7 17 18 22 23
b 8 3 8 9 13 14
b 9 3 9 13 14 21
b 10 3 9 14 15 21
b 11 3 4 9 15 21
b 12 4 9 10 15 21
b 13 4 10 15 16 21
b 14 4 10 11 16 21
b 15 4 11 16 18 21
b 16 11 16 17 18 21
b 17 16 17 18 21 22
b 18 18 23 24
b 19 13 19 20
b 20 5 6 12
1 2
2 4
3 20
3 5
4 8
5 15
6 19
6 9
7 18
7 17
8 9
9 10
10 11
11 12
12 13
13 14
14 15
15 16
16 17
